x01m05e0t1tp5
3121
3121
3187
3295
3295
3295
3295
3295
3295
3295
3295
3295
3368
3368
3368
3368
3368
3368
3368
3368
3368
3368
3368
3368
3368
3368
3368
3368
3368
3368
3368
3368
3368
3368
3368
3368
3368
3368
3368
3368
3368
3368
3368
3540
3540
3540
3540
3540
3540
3540
3540
3540
3540
3540
3540
3540
3540
3540
3540
3540
3540
3540
3540
3540
3540
3540
3540
3540
3540
3540
3540
3540
3540
3540
3540
3540
3540
3540
3540
3540
3540
3540
3540
3540
3540
3540
3540
3540
3540
3540
3540
3540
3540
3540
3540
3540
3540
3540
3540
3540
3540
3540
3540
3540
3540
3540
3540
3540
3540
3540
3540
3540
3540
3540
3540
3540
3540
3540
3540
3540
3540
3540
3540
3540
3540
3540
3540
3540
3540
3540
3540
3540
3540
3540
3540
3540
3540
3540
3540
3540
3540
3540
3540
3540
3540
3540
3540
3540
3540
3540
3540
3540
3540
3540
3540
3540
3540
3540
3540
3540
3540
3540
3540
3540
3540
3540
3540
3540
3540
3540
3540
3540
3540
3540
3540
3540
3540
3540
3540
3540
3540
3540
3540
3540
3540
3540
3540
3540
3540
3540
3540
3540
3540
3540
3540
3540
3540
3540
3540
3540
3540
3540
3540
3540
3540
3540
3540
3540
3540
3540
3540
3540
3540
3540
3540
3540
3540
3540
3540
3540
3540
3540
3540
3540
3540
3540
3540
3540
3540
3540
3540
3540
3598
3598
3598
3598
3598
3598
3598
3598
3598
3598
3598
3598
3598
3598
3598
3598
3598
3598
3598
3598
3598
3598
3598
3598
3598
3598
3598
3598
3598
3598
3598
3598
3598
3598
3598
3598
3598
3598
3598
3598
3598
3598
3598
3598
3598
3598
3598
3598
3598
3598
3598
3598
3598
3598
3598
3598
3598
3598
3598
3598
3598
3598
3598
3598
3598
3598
3598
3598
3598
3598
3598
3598
3598
3598
3598
3598
3598
3598
3598
3598
3598
3598
3598
3598
3598
3598
3598
3598
3598
3598
3598
3598
3598
3598
3598
3598
3598
3598
3598
3598
3598
3598
3598
3598
3598
3598
3598
3598
3598
3598
3598
3598
3598
3598
3598
3598
3598
3598
3598
3598
3598
3598
3598
3598
3598
3598
3598
3598
3598
3598
3598
3598
3598
3598
3598
3598
3598
3598
3598
3598
3598
3598
3598
3598
3598
3598
3598
3598
3598
3598
3598
3598
3598
3598
3598
3598
3598
3598
3598
3598
3598
3598
3598
3598
3598
3598
3598
3598
3598
3598
3598
3598
3598
3598
3598
3598
3598
3598
3598
3598
3598
3598
3598
3598
3598
3598
3598
3598
3598
3598
3598
3598
3598
3598
3598
3598
3598
3598
3598
3598
3598
3598
3598
3598
3598
3598
3598
3598
3598
3598
3598
3598
3598
3598
3598
3598
3598
3598
3598
3598
3598
3598
3598
3598
3598
3598
3598
3598
3598
3598
3598
3598
3598
3598
3598
3598
3598
3598
3598
3598
3598
3598
3598
3598
3598
3598
3598
3598
3598
3598
3598
3598
3598
3598
3598
3598
3598
3598
3598
3598
3598
3598
3598
3598
3598
3598
3598
3598
3598
3598
3598
3598
3598
3598
3598
3598
3598
3598
3598
3598
3598
3598
3598
3598
3598
3598
3598
3598
3598
3598
3598
3598
3598
3598
3598
3598
3598
3598
3598
3598
3598
3598
3598
3598
3598
3598
3598
3598
3598
3598
3598
3598
3598
3598
3598
3598
3598
3598
3598
3598
3598
3598
3598
3598
3598
3598
3598
3598
3598
3598
3598
3598
3598
3598
3598
3598
3598
3598
3598
3598
3598
3598
3598
3598
3598
3598
3598
3598
3598
3598
3598
3598
3598
3598
3598
3598
3598
3598
3598
3598
3598
3598
3598
3598
3598
3598
3598
3598
3598
3598
3598
3598
3598
3598
3598
3598
3598
3598
3598
3598
3598
3598
3598
3598
3598
3598
3598
3598
3598
3598
3598
3598
3598
3598
3598
3598
3598
3598
3598
3598
3598
3598
3598
3598
3598
3598
3598
3598
3598
3598
3598
3598
3598
3598
3598
3598
3598
3598
3598
3598
3598
3598
3598
3598
3598
3598
3598
3598
3598
3598
3598
3598
3598
3598
3598
3598
3598
3598
3598
3598
3598
3598
3598
3598
3598
3598
3598
3598
3598
3598
3598
3598
3598
3598
3598
3598
3598
3598
3598
3598
3598
3598
3598
3598
3598
3598
3598
3598
3598
3598
3598
3598
3598
3598
3598
3598
3598
3598
3598
3598
3598
3598
3598
3598
3598
3598
3598
3598
3598
3598
3598
3598
3598
3598
3598
3598
3598
3598
3598
3598
3598
3598
3598
3598
3598
3598
3598
3598
3598
3598
3598
3598
3598
3598
3598
3598
3598
3598
3598
3598
3598
3598
3598
3598
3598
3598
3598
3598
3598
3598
3598
3598
3598
3598
3598
3598
3598
3598
3598
3598
3598
3598
3598
3598
3598
3598
3598
3598
3598
3598
3598
3598
3598
3598
3598
3598
3598
3598
3598
3598
3598
3598
3598
3598
3598
3598
3598
3598
3598
3598
3598
3598
3598
3598
3598
3598
3598
3598
3598
3598
3598
3598
3598
3598
3598
3598
3598
3598
3598
3598
3598
3598
3598
3598
3598
3598
3598
3598
3598
3598
3598
3598
3598
3598
3598
3598
3598
3598
3598
3598
3598
3598
3598
3598
3598
3598
3598
3598
3598
3598
3598
3598
3598
3598
3598
3598
3598
3598
3598
3598
3598
3598
3598
3598
3598
3598
3598
3598
3598
3598
3598
3598
3598
3598
3598
3598
3598
3598
3598
3598
3598
3598
3598
3598
3598
3598
3598
3598
3598
3598
3598
3598
3598
3598
3598
3598
3598
3598
3598
3598
3598
3598
3598
3598
3598
3598
3598
3598
3598
3598
3598
3598
3598
3598
3598
3598
3598
3598
3598
3598
3598
3598
3598
3598
3598
3598
3598
3598
3598
3598
3598
3598
3598
3598
3598
3598
3598
3598
3598
3598
3598
3598
3598
3598
3598
3598
3598
3598
3598
3598
3598
3598
3598
3598
3598
3598
3598
3598
3598
3598
3598
3598
3598
3598
3598
3598
3598
3598
3598
3598
3598
3598
3598
3598
3598
3598
3598
3598
3598
3598
3598
3598
3598
3598
3598
3598
3598
3598
3598
3598
3598
3598
3598
3598
3598
3598
3598
3598
